400
400
320
320
319
318
318
318
317
317
317
315
315
313
313
313
312
312
312
312
312
311
311
310
310
310
309
309
308
307
307
307
306
304
303
302
302
302
301
301
299
299
298
298
298
298
298
297
296
296
296
295
295
294
294
294
293
292
292
292
291
291
290
289
287
287
287
286
285
285
284
283
283
282
282
280
280
280
279
279
278
278
276
275
274
274
273
270
270
267
267
264
263
263
263
263
263
262
262
260
260
259
259
258
257
256
255
255
255
254
254
253
253
253
252
251
250
249
249
249
248
247
246
246
246
246
246
246
246
244
244
242
242
242
241
240
240
239
239
239
238
237
237
237
236
236
236
235
235
235
233
232
232
232
231
229
229
229
229
229
227
226
226
225
224
224
224
223
223
223
222
221
221
220
219
218
218
217
215
215
214
213
213
213
212
211
211
211
210
210
210
209
209
209
209
208
206
205
204
204
204
204
203
203
203
203
203
203
202
201
201
200
197
197
197
196
195
195
195
194
192
192
192
190
189
189
188
188
187
187
186
186
186
185
185
184
184
184
184
183
182
181
181
179
179
179
177
176
175
175
173
173
170
170
170
170
168
168
167
167
166
166
166
165
165
164
164
163
163
163
162
162
162
161
161
161
160
157
157
157
157
156
156
155
155
154
154
152
151
151
150
150
150
150
149
149
148
147
146
146
145
145
144
144
143
143
142
141
141
140
140
139
139
139
138
137
137
137
136
136
135
134
134
133
129
129
128
128
127
126
126
125
123
122
122
121
120
120
120
119
119
118
118
116
116
115
115
114
112
112
112
110
110
109
108
107
105
105
105
105
104
104
104
102
102
101
100
99
98
98
98
97
95
93
93
93
93
93
93
91
91
90
89
89
89
89
88
87
86
86
86
85
85
84
84
81
81
81
81
80
80
80
